FILENAME:   /home/mcs001/s132664/testsets/IP/miplib2017/tpl-tub-ss16.mps.gz
SETTINGS:   settings_final_nosym_norestarts
TIMELIMIT:  7200
OUTPUTNAME: final_miplib_symretope_if_extended_generating_set_cpx_v802__settings_final_nosym_norestarts__4__
BINNAME:    bin/sbcs.linux.x86_64.gnu.opt.cpx
BASENAME:   tpl-tub-ss16.mps.gz
SEED:       4
@01 /home/mcs001/s132664/testsets/IP/miplib2017/tpl-tub-ss16.mps.gz ===========
@02 tpl-tub-ss16.mps.gz
@03 1686665002
SCIP version 8.0.2 [precision: 8 byte] [memory: block] [mode: optimized] [LP solver: CPLEX 20.1.0.0] [GitHash: 5f0473c]
Copyright (C) 2002-2022 Konrad-Zuse-Zentrum fuer Informationstechnik Berlin (ZIB)

Symretope propagation methods - (c) Jasper van Doornmalen, Christopher Hojny.
[GitHash: 2fd0484]

reading parameter file <../settings/settings_final_nosym_norestarts.set> ...

Changed settings:
limits/time = 7200
limits/restarts = 0
misc/usesymmetry = 0
randomization/randomseedshift = 4
constraints/orbisack/sepafreq = -1
constraints/symresack/sepafreq = -1
propagating/symmetry/detectsubgroups = FALSE
propagating/symmetry/usesymretopes = FALSE
propagating/symmetry/relabelsymretopes = 0
propagating/symmetry/ofsymcomptiming = 0
constraints/symretope/sepafreq = -1
constraints/symretope/peek = FALSE


solving problem ...

original problem has 595066 variables (570303 bin, 0 int, 0 impl, 24763 cont) and 901872 constraints
presolving:
(round 1, fast)       24551 del vars, 399282 del conss, 0 add conss, 4938 chg bounds, 0 chg sides, 77 chg coeffs, 0 upgd conss, 0 impls, 229918 clqs
(round 2, fast)       24879 del vars, 400210 del conss, 0 add conss, 4938 chg bounds, 16155 chg sides, 77 chg coeffs, 0 upgd conss, 0 impls, 230192 clqs
(round 3, exhaustive) 25078 del vars, 663257 del conss, 0 add conss, 5560 chg bounds, 16155 chg sides, 77 chg coeffs, 0 upgd conss, 0 impls, 230192 clqs
(round 4, exhaustive) 25094 del vars, 663273 del conss, 0 add conss, 5560 chg bounds, 16155 chg sides, 77 chg coeffs, 235821 upgd conss, 0 impls, 230178 clqs
   (234.8s) probing: 1000/567159 (0.2%) - 1 fixings, 0 aggregations, 390328 implications, 0 bound changes
   (235.2s) probing: 1002/567159 (0.2%) - 1 fixings, 0 aggregations, 391327 implications, 0 bound changes
   (235.2s) probing aborted: 1000/1000 successive useless probings
presolving (5 rounds: 5 fast, 3 medium, 3 exhaustive):
 25172 deleted vars, 663347 deleted constraints, 34 added constraints, 5561 tightened bounds, 0 added holes, 16162 changed sides, 132 changed coefficients
 0 implications, 626122 cliques
presolved problem has 569894 variables (562222 bin, 0 int, 7672 impl, 0 cont) and 238559 constraints
   4891 constraints of type <varbound>
   1019 constraints of type <knapsack>
 229871 constraints of type <setppc>
   2775 constraints of type <linear>
      3 constraints of type <logicor>
transformed objective value is always integral (scale: 1)
Presolving Time: 232.76

 time | node  | left  |LP iter|LP it/n|mem/heur|mdpt |vars |cons |rows |cuts |sepa|confs|strbr|  dualbound   | primalbound  |  gap   | compl. 
p 391s|     1 |     0 |     0 |     - |shiftand|   0 | 569k| 238k| 238k|   0 |  0 |  93 |   0 |-2.005365e+08 | 1.591454e+07 |    Inf | unknown
i 393s|     1 |     0 |     0 |     - |  oneopt|   0 | 569k| 238k| 238k|   0 |  0 |  93 |   0 |-2.005365e+08 | 1.242594e+07 |    Inf | unknown
  556s|     1 |     0 |103418 |     - |  4536M |   0 | 569k| 238k| 238k|   0 |  0 |  93 |   0 | 1.503438e+05 | 1.242594e+07 |8165.02%| unknown
 1416s|     1 |     0 |136060 |     - |  4648M |   0 | 569k| 238k| 238k| 268 |  1 | 102 |   0 | 1.503589e+05 | 1.242594e+07 |8164.19%| unknown
 1691s|     1 |     0 |151917 |     - |  4688M |   0 | 569k| 238k| 239k| 504 |  2 | 103 |   0 | 1.503683e+05 | 1.242594e+07 |8163.67%| unknown
 2001s|     1 |     0 |171560 |     - |  4731M |   0 | 569k| 238k| 239k| 722 |  3 | 104 |   0 | 1.503796e+05 | 1.242594e+07 |8163.05%| unknown
 2318s|     1 |     0 |186602 |     - |  4776M |   0 | 569k| 238k| 239k| 898 |  4 | 113 |   0 | 1.503876e+05 | 1.242594e+07 |8162.61%| unknown
 2689s|     1 |     0 |204117 |     - |  4806M |   0 | 569k| 238k| 239k|1055 |  5 | 115 |   0 | 1.503933e+05 | 1.242594e+07 |8162.30%| unknown
 3038s|     1 |     0 |225430 |     - |  4847M |   0 | 569k| 238k| 239k|1217 |  6 | 122 |   0 | 1.503996e+05 | 1.242594e+07 |8161.95%| unknown
 3459s|     1 |     0 |247001 |     - |  4880M |   0 | 569k| 238k| 239k|1376 |  7 | 128 |   0 | 1.504046e+05 | 1.242594e+07 |8161.68%| unknown
 3857s|     1 |     0 |268451 |     - |  4921M |   0 | 569k| 238k| 240k|1523 |  8 | 137 |   0 | 1.504091e+05 | 1.242594e+07 |8161.43%| unknown
 4351s|     1 |     0 |294990 |     - |  4955M |   0 | 569k| 238k| 240k|1661 |  9 | 138 |   0 | 1.504116e+05 | 1.242594e+07 |8161.30%| unknown
 4704s|     1 |     0 |316564 |     - |  5008M |   0 | 569k| 238k| 240k|1802 | 10 | 139 |   0 | 1.504146e+05 | 1.242594e+07 |8161.13%| unknown
 5296s|     1 |     0 |341931 |     - |  5039M |   0 | 569k| 238k| 240k|1924 | 11 | 140 |   0 | 1.504178e+05 | 1.242594e+07 |8160.95%| unknown
 7200s|     1 |     2 |480688 |     - |  5060M |   0 | 569k| 238k| 240k|1924 | 11 | 150 |   0 | 1.504178e+05 | 1.242594e+07 |8160.95%| unknown

SCIP Status        : solving was interrupted [time limit reached]
Solving Time (sec) : 7200.37
Solving Nodes      : 1
Primal Bound       : +1.24259450000000e+07 (2 solutions)
Dual Bound         : +1.50417789099541e+05
Gap                : 8160.95 %
SCIP Status        : solving was interrupted [time limit reached]
Total Time         :    7210.34
  solving          :    7200.37
  presolving       :     232.76 (included in solving)
  reading          :       9.97
  copying          :       0.00 (0 times copied the problem)
Original Problem   :
  Problem name     : tpl-tub-ss16
  Variables        : 595066 (570303 binary, 0 integer, 0 implicit integer, 24763 continuous)
  Constraints      : 901872 initial, 901872 maximal
  Objective        : minimize, 411237 non-zeros (abs.min = 1, abs.max = 10000)
Presolved Problem  :
  Problem name     : t_tpl-tub-ss16
  Variables        : 569894 (562222 binary, 0 integer, 7672 implicit integer, 0 continuous)
  Constraints      : 238559 initial, 238709 maximal
  Objective        : minimize, 399205 non-zeros (abs.min = 1, abs.max = 23443)
  Nonzeros         : 2053542 constraint, 2074263 clique table
Presolvers         :   ExecTime  SetupTime  Calls  FixedVars   AggrVars   ChgTypes  ChgBounds   AddHoles    DelCons    AddCons   ChgSides   ChgCoefs
  boundshift       :       0.00       0.00      0          0          0          0          0          0          0          0          0          0
  convertinttobin  :       0.00       0.00      0          0          0          0          0          0          0          0          0          0
  domcol           :       1.44       0.00      1          2          0          0          0          0          0          0          0          0
  dualagg          :       0.00       0.00      0          0          0          0          0          0          0          0          0          0
  dualcomp         :       0.00       0.00      0          0          0          0          0          0          0          0          0          0
  dualinfer        :       0.00       0.00      0          0          0          0          0          0          0          0          0          0
  dualsparsify     :       1.55       0.00      1          0          0          0          0          0          0          0          0          0
  gateextraction   :       0.51       0.00      1          0          0          0          0          0          0          0          0          0
  implics          :       0.05       0.00      3          0          0          0          0          0          0          0          0          0
  inttobinary      :       0.00       0.00      0          0          0          0          0          0          0          0          0          0
  qpkktref         :       0.00       0.00      0          0          0          0          0          0          0          0          0          0
  redvub           :       0.00       0.00      0          0          0          0          0          0          0          0          0          0
  sparsify         :       3.48       0.00      1          0          0          0          0          0          0          0          0          0
  stuffing         :       0.00       0.00      0          0          0          0          0          0          0          0          0          0
  trivial          :       0.17       0.00      5          0          0          0          0          0          0          0          0          0
  tworowbnd        :       0.00       0.00      0          0          0          0          0          0          0          0          0          0
  dualfix          :       0.15       0.00      5        529          0          0          0          0          0          0          0          0
  genvbounds       :       0.00       0.00      0          0          0          0          0          0          0          0          0          0
  probing          :     208.13       0.03      1          1          0          0          0          0          0          0          0          0
  pseudoobj        :       0.00       0.00      0          0          0          0          0          0          0          0          0          0
  symmetry         :       0.00       0.00      0          0          0          0          0          0          0          0          0          0
  vbounds          :       1.06       0.00      1          0          0          0          0          0          0          0          0          0
  varbound         :       0.01       0.00      2          0          0          0          0          0          0          0          0          0
  knapsack         :       2.59       0.06      3          0          0          0          0          0          6         34          5         50
  setppc           :       1.89       0.11      3          2         32          0          0          0         27          0          2          5
  linear           :       6.24       1.78      8       4938      19629          0       5561          0     663274          0      16155         77
  logicor          :       0.02       0.00      3          0          0          0          0          0          0          0          0          0
  benders          :       0.00       0.00      0          0          0          0          0          0          0          0          0          0
  components       :       1.14       0.00      1         39          0          0          0          0         40          0          0          0
  root node        :          -          -      -          0          -          -          0          -          -          -          -          -
Constraints        :     Number  MaxNumber  #Separate #Propagate    #EnfoLP    #EnfoRelax  #EnfoPS    #Check   #ResProp    Cutoffs    DomReds       Cuts    Applied      Conss   Children
  benderslp        :          0          0          0          0          0          0          1         12          0          0          0          0          0          0          0
  integral         :          0          0          0          0          0          0          0         12          0          0          0          0          0          0          0
  varbound         :       4891       4891         11     237546          0          0          1          6          0          0          0          0          0          0          0
  knapsack         :       1019       1019         11     237546          0          0          1          6          0         17          0       2208       1130          0          0
  setppc           :     229871+    229898         11     237529          0          0          1          4       2502         36          0          2          0          0          0
  linear           :       2775       2775         11     237493          0          0          0          2          0          0          0          0          0          0          0
  logicor          :          3+       126         11        228          0          0          1          2          0          3          0          8          2          0          0
  benders          :          0          0          0          0          0          0          1          3          0          0          0          0          0          0          0
  countsols        :          0          0          0          0          0          0          1          3          0          0          0          0          0          0          0
  components       :          0          0          0          0          0          0          0          0          0          0          0          0          0          0          0
Constraint Timings :  TotalTime  SetupTime   Separate  Propagate     EnfoLP     EnfoPS     EnfoRelax   Check    ResProp    SB-Prop
  benderslp        :       0.00       0.00       0.00       0.00       0.00       0.00       0.00       0.00       0.00       0.00
  integral         :       0.35       0.00       0.00       0.00       0.00       0.00       0.00       0.35       0.00       0.00
  varbound         :       0.07       0.00       0.04       0.02       0.00       0.00       0.00       0.01       0.00       0.00
  knapsack         :      32.48       0.06       4.53      27.77       0.00       0.00       0.00       0.11       0.00       0.00
  setppc           :      25.39       0.11       0.90      24.26       0.00       0.10       0.00       0.02       0.00       0.00
  linear           :      18.75       1.78      16.80       0.17       0.00       0.00       0.00       0.00       0.00       0.00
  logicor          :       0.00       0.00       0.00       0.00       0.00       0.00       0.00       0.00       0.00       0.00
  benders          :       0.00       0.00       0.00       0.00       0.00       0.00       0.00       0.00       0.00       0.00
  countsols        :       0.00       0.00       0.00       0.00       0.00       0.00       0.00       0.00       0.00       0.00
  components       :       0.02       0.00       0.00       0.02       0.00       0.00       0.00       0.00       0.00       0.00
Propagators        : #Propagate   #ResProp    Cutoffs    DomReds
  dualfix          :          2          0          0          0
  genvbounds       :          0          0          0          0
  nlobbt           :          0          0          0          0
  obbt             :          0          0          0          0
  probing          :          0          0          0          0
  pseudoobj        :         15          0          0          0
  redcost          :         13          0          0          0
  rootredcost      :          0          0          0          0
  symmetry         :          0          0          0          0
  vbounds          :      16617          0          0          0
Propagator Timings :  TotalTime  SetupTime   Presolve  Propagate    ResProp    SB-Prop
  dualfix          :       0.21       0.00       0.15       0.06       0.00       0.00
  genvbounds       :       0.03       0.00       0.00       0.03       0.00       0.00
  nlobbt           :       0.00       0.00       0.00       0.00       0.00       0.00
  obbt             :       0.00       0.00       0.00       0.00       0.00       0.00
  probing          :     208.16       0.03     208.13       0.00       0.00       0.00
  pseudoobj        :       0.28       0.00       0.00       0.28       0.00       0.00
  redcost          :       0.62       0.00       0.00       0.62       0.00       0.00
  rootredcost      :       0.02       0.00       0.00       0.02       0.00       0.00
  symmetry         :       0.02       0.00       0.00       0.02       0.00       0.00
  vbounds          :       1.37       0.00       1.06       0.31       0.00       0.00
Conflict Analysis  :       Time      Calls    Success    DomReds  Conflicts   Literals    Reconvs ReconvLits   Dualrays   Nonzeros   LP Iters   (pool size: [10000,10000])
  propagation      :       0.01         45         45          -        190      225.1          0        0.0          -          -          -
  infeasible LP    :       0.00          0          0          -          0        0.0          0        0.0          0        0.0          0
  bound exceed. LP :       0.00          0          0          -          0        0.0          0        0.0          0        0.0          0
  strong branching :       0.00          0          0          -          0        0.0          0        0.0          -          -          0
  pseudo solution  :       0.00          0          0          -          0        0.0          0        0.0          -          -          -
  applied globally :       0.05          -          -          0        150       60.5          -          -          0          -          -
  applied locally  :          -          -          -          0          0        0.0          -          -          0          -          -
Separators         :   ExecTime  SetupTime      Calls  RootCalls    Cutoffs    DomReds  FoundCuts ViaPoolAdd  DirectAdd    Applied ViaPoolApp  DirectApp      Conss
  cut pool         :       0.13          -         21         21          -          -       2623       1566          -          -          -          -          -    (maximal pool size:       2623)
  aggregation      :      18.92       0.00         11         11          0          0          2          2          0          1          1          0          0
  > cmir           :          -          -          -          -          -          -          -          2          0          1          1          0          -
  > flowcover      :          -          -          -          -          -          -          -          0          0          0          0          0          -
  > knapsackcover  :          -          -          -          -          -          -          -          0          0          0          0          0          -
  cgmip            :       0.00       0.00          0          0          0          0          0          0          0          0          0          0          0
  clique           :    1441.19       0.00         11         11          0          0         61         70          0         30         30          0          0
  closecuts        :       0.00       0.00          0          0          0          0          0          0          0          0          0          0          0
  convexproj       :       0.00       0.00          0          0          0          0          0          0          0          0          0          0          0
  disjunctive      :       0.00       0.00          0          0          0          0          0          0          0          0          0          0          0
  eccuts           :       0.00       0.00          0          0          0          0          0          0          0          0          0          0          0
  gauge            :       0.00       0.00          0          0          0          0          0          0          0          0          0          0          0
  gomory           :      39.24       0.00         10         10          0          0       2005        938          0        232        232          0          0
  > gomorymi       :          -          -          -          -          -          -          -        116          0         23         23          0          -
  > strongcg       :          -          -          -          -          -          -          -        822          0        209        209          0          -
  impliedbounds    :       1.41       0.00         11         11          0          0          2          2          0          2          2          0          0
  interminor       :       0.00       0.00          0          0          0          0          0          0          0          0          0          0          0
  intobj           :       0.00       0.00          0          0          0          0          0          0          0          0          0          0          0
  mcf              :     581.33       0.00          1          1          0          0          0          0          0          0          0          0          0
  minor            :       0.00       0.00          0          0          0          0          0          0          0          0          0          0          0
  mixing           :       0.00       0.00         11         11          0          0          0          0          0          0          0          0          0
  oddcycle         :       0.00       0.00          0          0          0          0          0          0          0          0          0          0          0
  rapidlearning    :       0.47       0.00          0          0          0          0          0          0          0          0          0          0          0
  rlt              :       0.00       0.00         10         10          0          0          0          0          0          0          0          0          0
  zerohalf         :      17.08       0.00         11         11          0          0        553        554          0        527        527          0          0
Cutselectors       :   ExecTime  SetupTime      Calls  RootCalls   Selected     Forced   Filtered  RootSelec   RootForc   RootFilt 
  hybrid           :       0.28       0.00         11         11       1924          0       1860       1924          0       1860
Pricers            :   ExecTime  SetupTime      Calls       Vars
  problem variables:       0.00          -          0          0
Branching Rules    :   ExecTime  SetupTime   BranchLP  BranchExt   BranchPS    Cutoffs    DomReds       Cuts      Conss   Children
  allfullstrong    :       0.00       0.00          0          0          0          0          0          0          0          0
  cloud            :       0.00       0.00          0          0          0          0          0          0          0          0
  distribution     :       0.00       0.00          0          0          0          0          0          0          0          0
  fullstrong       :       0.00       0.00          0          0          0          0          0          0          0          0
  inference        :       0.14       0.00          0          0          1          0          0          0          0          2
  leastinf         :       0.00       0.00          0          0          0          0          0          0          0          0
  lookahead        :       0.00       0.00          0          0          0          0          0          0          0          0
  mostinf          :       0.00       0.00          0          0          0          0          0          0          0          0
  multaggr         :       0.00       0.00          0          0          0          0          0          0          0          0
  nodereopt        :       0.00       0.00          0          0          0          0          0          0          0          0
  pscost           :       0.00       0.00          0          0          0          0          0          0          0          0
  random           :       0.00       0.00          0          0          0          0          0          0          0          0
  relpscost        :       0.00       0.00          0          0          0          0          0          0          0          0
  vanillafullstrong:       0.00       0.00          0          0          0          0          0          0          0          0
Primal Heuristics  :   ExecTime  SetupTime      Calls      Found       Best
  LP solutions     :       0.00          -          -          0          0
  relax solutions  :       0.00          -          -          0          0
  pseudo solutions :       0.00          -          -          0          0
  strong branching :       0.00          -          -          0          0
  actconsdiving    :       0.00       0.00          0          0          0
  adaptivediving   :       0.00       0.00          0          0          0
  alns             :       0.00       0.00          0          0          0
  bound            :       0.00       0.00          0          0          0
  clique           :       3.93       0.00          1          0          0
  coefdiving       :       0.00       0.00          0          0          0
  completesol      :       0.00       0.00          0          0          0
  conflictdiving   :       0.00       0.00          0          0          0
  crossover        :       0.00       0.00          0          0          0
  dins             :       0.00       0.00          0          0          0
  distributiondivin:       0.00       0.00          0          0          0
  dps              :       0.00       0.00          0          0          0
  dualval          :       0.00       0.00          0          0          0
  farkasdiving     :    1898.45       0.00          1          0          0
  feaspump         :       0.00       0.00          0          0          0
  fixandinfer      :       0.00       0.00          0          0          0
  fracdiving       :       0.00       0.00          0          0          0
  gins             :       0.00       0.00          0          0          0
  guideddiving     :       0.00       0.00          0          0          0
  indicator        :       0.00       0.00          0          0          0
  intdiving        :       0.00       0.00          0          0          0
  intshifting      :       0.00       0.00          0          0          0
  linesearchdiving :       0.00       0.00          0          0          0
  localbranching   :       0.00       0.00          0          0          0
  locks            :     138.34       0.00          1          0          0
  lpface           :       0.00       0.00          0          0          0
  mpec             :       0.00       0.00          0          0          0
  multistart       :       0.00       0.00          0          0          0
  mutation         :       0.00       0.00          0          0          0
  nlpdiving        :       0.00       0.00          0          0          0
  objpscostdiving  :       0.00       0.00          0          0          0
  octane           :       0.00       0.00          0          0          0
  ofins            :       0.00       0.00          0          0          0
  oneopt           :       0.84       0.00          1          1          1
  padm             :       0.00       0.00          0          0          0
  proximity        :       0.00       0.00          0          0          0
  pscostdiving     :       0.00       0.00          0          0          0
  randrounding     :       8.01       0.00         12          0          0
  rens             :       0.00       0.00          0          0          0
  reoptsols        :       0.00       0.00          0          0          0
  repair           :       0.00       0.00          0          0          0
  rins             :       0.00       0.00          0          0          0
  rootsoldiving    :       0.00       0.00          0          0          0
  rounding         :       0.13       0.00         12          0          0
  shiftandpropagate:       6.60       0.00          1          1          1
  shifting         :      52.29       0.00         12          0          0
  simplerounding   :       0.02       0.00         12          0          0
  subnlp           :       0.00       0.00          0          0          0
  trivial          :       1.59       0.00          2          0          0
  trivialnegation  :       0.00       0.00          0          0          0
  trustregion      :       0.00       0.00          0          0          0
  trysol           :       0.00       0.00          0          0          0
  twoopt           :       0.00       0.00          0          0          0
  undercover       :       0.00       0.00          0          0          0
  vbounds          :       3.96       0.00          1          0          0
  veclendiving     :       0.00       0.00          0          0          0
  zeroobj          :       0.00       0.00          0          0          0
  zirounding       :       0.00       0.00          1          0          0
  other solutions  :          -          -          -          0          -
LP                 :       Time      Calls Iterations  Iter/call   Iter/sec  Time-0-It Calls-0-It    ItLimit
  primal LP        :     189.87          1          0       0.00       0.00     189.87          1
  dual LP          :    2494.85         12     341931   28494.25     137.05       0.00          0
  lex dual LP      :       0.00          0          0       0.00          -
  barrier LP       :       0.00          0          0       0.00          -       0.00          0
  resolve instable :       0.00          0          0       0.00          -
  diving/probing LP:    1896.78         12     138757   11563.08      73.15
  strong branching :       0.00          0          0       0.00          -          -          -          0
    (at root node) :          -          0          0       0.00          -
  conflict analysis:       0.00          0          0       0.00          -
B&B Tree           :
  number of runs   :          1
  nodes            :          1 (1 internal, 0 leaves)
  feasible leaves  :          0
  infeas. leaves   :          0
  objective leaves :          0
  nodes (total)    :          1 (1 internal, 0 leaves)
  nodes left       :          2
  max depth        :          0
  max depth (total):          0
  backtracks       :          0 (0.0%)
  early backtracks :          0 (0.0%)
  nodes exc. ref.  :          0 (0.0%)
  delayed cutoffs  :          0
  repropagations   :          0 (0 domain reductions, 0 cutoffs)
  avg switch length:       1.00
  switching time   :       0.00
Root Node          :
  First LP value   : +1.50343786278179e+05
  First LP Iters   :     103418 (649.56 Iter/sec)
  First LP Time    :     159.21
  Final Dual Bound : +1.50417789099541e+05
  Final Root Iters :     341931
  Root LP Estimate :                     -
Solution           :
  Solutions found  :          2 (2 improvements)
  First Solution   : +1.59145360000000e+07   (in run 1, after 1 nodes, 390.81 seconds, depth 65003, found by <shiftandpropagate>)
  Gap First Sol.   :   infinite
  Gap Last Sol.    :   infinite
  Primal Bound     : +1.24259450000000e+07   (in run 1, after 1 nodes, 392.24 seconds, depth 0, found by <oneopt>)
  Dual Bound       : +1.50417789099541e+05
  Gap              :    8160.95 %
Integrals          :      Total       Avg%
  primal-dual      :  711991.13      98.88
  primal-ref       :          -          - (not evaluated)
  dual-ref         :          -          - (not evaluated)
written solution information to file <results/final_miplib_symretope_if_extended_generating_set_cpx_v802__settings_final_nosym_norestarts__4__tpl-tub-ss16.mps.gz.sol>
@04 1686672219
